problems/GracefulDoubleWheelGraphs/GracefulDoubleWheelGraphs-models/noch/O0/minion/model-n07-solution000001.eprime-solution
language ESSENCE' 1.0

letting colouring_Function1D be [0, 1, 3, 6, 10, 5, 17, 2, 9, 18, 4, 20, 7, 22, 28; int(0..14)]
letting edgeID_Function1D be
        [1, 2, 3, 4, 5, 12, 17, 7, 9, 14, 16, 13, 15, 20, 28, 27, 25, 22, 18, 23, 11, 26, 19, 10, 24, 8, 21, 6;
             int(0..27)]
