problems/GracefulDoubleWheelGraphs/GracefulDoubleWheelGraphs-models/noch/O0/minion/model-n07-solution000001.solution
language Essence 1.3

letting colouring be
        function(0 --> 0, 1 --> 1, 2 --> 3, 3 --> 6, 4 --> 10, 5 --> 5, 6 --> 17, 7 --> 2, 8 --> 9, 9 --> 18, 10 --> 4,
                 11 --> 20, 12 --> 7, 13 --> 22, 14 --> 28)
letting edgeID be
        function(0 --> 1, 1 --> 2, 2 --> 3, 3 --> 4, 4 --> 5, 5 --> 12, 6 --> 17, 7 --> 7, 8 --> 9, 9 --> 14, 10 --> 16,
                 11 --> 13, 12 --> 15, 13 --> 20, 14 --> 28, 15 --> 27, 16 --> 25, 17 --> 22, 18 --> 18, 19 --> 23,
                 20 --> 11, 21 --> 26, 22 --> 19, 23 --> 10, 24 --> 24, 25 --> 8, 26 --> 21, 27 --> 6)
